Version identifier: 22.1.1.0 | 2022-11-28 | 9160aff4d
CPXPARAM_ClockType                               1
CPXPARAM_Read_DataCheck                          1
CPXPARAM_Threads                                 1
CPXPARAM_TimeLimit                               7200
CPXPARAM_MIP_Tolerances_AbsMIPGap                0
CPXPARAM_MIP_Tolerances_MIPGap                   0
CPXPARAM_MIP_Tolerances_Integrality              0
Tried aggregator 1 time.
MIP Presolve eliminated 276617 rows and 9 columns.
MIP Presolve modified 123958 coefficients.
Reduced MIP has 153591 rows, 30081 columns, and 781816 nonzeros.
Reduced MIP has 30081 binaries, 0 generals, 0 SOSs, and 0 indicators.
Presolve time = 3.69 sec. (2062.46 ticks)
Probing time = 0.06 sec. (10.65 ticks)
Tried aggregator 1 time.
Detecting symmetries...
MIP Presolve eliminated 540 rows and 0 columns.
Reduced MIP has 153051 rows, 30081 columns, and 772636 nonzeros.
Reduced MIP has 30081 binaries, 0 generals, 0 SOSs, and 0 indicators.
Presolve time = 2.05 sec. (1110.71 ticks)
Probing time = 0.06 sec. (10.34 ticks)
Clique table members: 166209.
MIP emphasis: balance optimality and feasibility.
MIP search method: dynamic search.
Parallel mode: none, using 1 thread.
Root relaxation solution time = 6650.37 sec. (945172.17 ticks)

        Nodes                                         Cuts/
   Node  Left     Objective  IInf  Best Integer    Best Bound    ItCnt     Gap

      0     0     5848.2500  5518                   5848.2500  1034442         

Root node processing (before b&c):
  Real time             = 7210.03 sec. (1111749.90 ticks)
Sequential b&c:
  Real time             =    0.00 sec. (0.00 ticks)
                          ------------
Total (root+branch&cut) = 7210.03 sec. (1111749.90 ticks)
Solution is infeasible.

---------------------
@@@ MIP_time_limit_infeasible
Traceback (most recent call last):
  File "/scratch/scherif/DiverseSAT-journal_sup/DiverseSAT_Supplementary_Experiments/experiment-1/cplex/jobs/../solvers/CPLEX-DW-SE.py", line 104, in <module>
    print(f">>> Benchmark {os.path.basename(cnf_file)} k {k} OPT {int(prob.solution.get_objective_value())}"
  File "/users/scherif/.local/lib/python3.9/site-packages/cplex/_internal/_subinterfaces.py", line 7211, in get_objective_value
    return CPX_PROC.getobjval(self._env._e, self._cplex._lp)
  File "/users/scherif/.local/lib/python3.9/site-packages/cplex/_internal/_procedural.py", line 2055, in getobjval
    check_status(env, status)
  File "/users/scherif/.local/lib/python3.9/site-packages/cplex/_internal/_procedural.py", line 249, in __call__
    raise CplexSolverError(error_string, env, status)
cplex.exceptions.errors.CplexSolverError: CPLEX Error  1217: No solution exists.
